c description: Random 3-CNF over 16 variables and 64 clauses
p cnf 16 64
7 10 14 0
9 11 13 0
7 -11 -13 0
6 -12 15 0
-4 11 14 0
-3 9 -11 0
3 12 -13 0
5 -6 -13 0
-2 3 -4 0
5 8 -15 0
-3 -6 14 0
-9 12 14 0
-3 -5 -8 0
7 -10 15 0
1 -10 -14 0
-5 14 15 0
7 10 12 0
-4 -14 16 0
3 -12 -14 0
4 7 -16 0
10 -14 -16 0
4 11 12 0
3 -5 -12 0
3 13 -14 0
2 -8 9 0
9 -12 14 0
-2 6 -16 0
-9 11 12 0
-7 9 15 0
-1 3 -7 0
6 7 12 0
2 3 7 0
-1 9 -14 0
-1 2 -4 0
-2 -3 5 0
-5 -10 -15 0
-3 8 15 0
2 -5 -8 0
-4 8 13 0
1 3 -13 0
-9 12 13 0
-5 -7 -12 0
6 -7 -14 0
-1 -2 16 0
1 -5 -13 0
3 11 16 0
-3 8 -10 0
6 -13 -15 0
1 -2 3 0
-1 -11 13 0
2 -7 -11 0
6 -11 12 0
1 3 7 0
3 -8 10 0
-2 -10 -14 0
5 12 -13 0
1 -4 12 0
-3 -9 13 0
-3 -11 -15 0
-3 8 -16 0
-6 7 11 0
7 -14 -16 0
-3 5 -12 0
5 -11 15 0